NAME          MIP_VARIED_EX02
ROWS
 N   OBJ
 E   C1
 G   C2
COLUMNS
    X1       OBJ       4
    X1       C1       1
    X1       C2       2
    X2       OBJ       3
    X2       C1       2
    X2       C2       1
    X3       OBJ       2
    X3       C1       2
    X3       C2       2
RHS
    RHS1     C1        6
    RHS1     C2        2
BOUNDS
 BV BND1     X1
 BV BND1     X2
 BV BND1     X3
ENDATA